sing20230308.00
TTAA  58001 48698
99011 25225 03005 00127 24614 36006 92806 19802 01523
85538 15809 02518 70178 10045 23504 50589 06358 26508
40761 15770 26014 30972 31170 27508 25098 42358 14010
20244 54161 11019 15426 65569 28518 10661 83157 29514
88999
77999=
TTCC  58005 48698
70860 78563 26510 50058 65381 28031
88924 86359 04018
77999=
TTDD  5800/ 48698
11924 86359 22848 80960 33766 81760 44718 78363 55662 78764
66645 75767 77610 76566 88523 65779 99441 67582
21212 11952 31506 22937 02512 33921 04518 44880 04514 55856
00504 66839 07002 77817 06002 88816 04502 99812 32002 11808
29502 22792 32006 33749 34506 44746 33504 55739 26002 66731
23004 77715 26010 88699 26510 99676 30516 11660 30012 22646
27018 33614 25521 44582 28525 55555 28025 66533 25523 77498
28031 88441 27527=
